DATASET = "thpack8";
INSTANCE = "004";

WIDTH = 2000;
HEIGHT = 1100;
LENGTH = 3000;

NO_OF_SHAPES = 7;
size = [|
  400,375,200 |
  400,250,250 |
  300,300,200 |
  500,500,225 |
  800,400,275 |
  600,200,275 |
  900,200,275 |
|];

verticality = [|
  0,0,1 |
  0,0,1 |
  0,0,1 |
  0,0,1 |
  0,0,1 |
  0,0,1 |
  0,0,1 |
|];

box_count = [
  16,
  23,
  17,
  9,
  8,
  17,
  10,
];
